c "787201.clq"
p edge 100 1344
e 1 17
e 1 18
e 1 19
e 1 21
e 1 22
e 1 23
e 1 24
e 1 25
e 1 26
e 1 27
e 1 29
e 1 30
e 1 31
e 1 32
e 1 39
e 1 40
e 1 41
e 1 45
e 1 46
e 1 48
e 1 50
e 1 52
e 1 54
e 1 56
e 1 65
e 1 66
e 1 67
e 1 75
e 1 77
e 1 78
e 1 82
e 1 89
e 1 97
e 1 98
e 1 99
e 2 17
e 2 18
e 2 19
e 2 20
e 2 21
e 2 22
e 2 25
e 2 26
e 2 27
e 2 28
e 2 29
e 2 30
e 2 31
e 2 34
e 2 36
e 2 37
e 2 38
e 2 39
e 2 42
e 2 43
e 2 44
e 2 45
e 2 46
e 2 47
e 2 52
e 2 56
e 2 59
e 2 60
e 2 63
e 2 69
e 2 74
e 2 79
e 2 89
e 2 92
e 2 94
e 2 100
e 3 17
e 3 18
e 3 20
e 3 22
e 3 23
e 3 32
e 3 35
e 3 42
e 3 45
e 3 50
e 3 64
e 3 69
e 3 75
e 4 17
e 4 18
e 4 19
e 4 20
e 4 21
e 4 22
e 4 24
e 4 25
e 4 31
e 4 33
e 4 38
e 4 40
e 4 42
e 4 43
e 4 48
e 4 54
e 4 55
e 4 57
e 4 59
e 4 65
e 4 67
e 4 71
e 4 72
e 4 74
e 4 78
e 4 82
e 4 87
e 4 91
e 4 97
e 5 17
e 5 18
e 5 19
e 5 20
e 5 21
e 5 22
e 5 23
e 5 26
e 5 28
e 5 29
e 5 30
e 5 31
e 5 36
e 5 37
e 5 38
e 5 40
e 5 41
e 5 43
e 5 45
e 5 46
e 5 47
e 5 49
e 5 52
e 5 53
e 5 60
e 5 63
e 5 67
e 5 72
e 5 76
e 5 81
e 5 84
e 5 93
e 5 94
e 6 17
e 6 18
e 6 20
e 6 23
e 6 24
e 6 25
e 6 27
e 6 28
e 6 29
e 6 31
e 6 33
e 6 35
e 6 39
e 6 41
e 6 45
e 6 47
e 6 49
e 6 50
e 6 51
e 6 53
e 6 57
e 6 61
e 6 62
e 6 67
e 6 68
e 6 82
e 6 83
e 6 85
e 6 90
e 6 95
e 7 17
e 7 19
e 7 20
e 7 22
e 7 23
e 7 24
e 7 28
e 7 30
e 7 33
e 7 34
e 7 36
e 7 42
e 7 47
e 7 50
e 7 51
e 7 61
e 7 63
e 7 81
e 7 95
e 8 17
e 8 18
e 8 19
e 8 20
e 8 21
e 8 22
e 8 23
e 8 24
e 8 25
e 8 28
e 8 30
e 8 33
e 8 34
e 8 51
e 8 53
e 8 55
e 8 58
e 8 62
e 8 65
e 8 70
e 8 71
e 8 73
e 8 74
e 8 85
e 8 92
e 9 17
e 9 18
e 9 19
e 9 20
e 9 21
e 9 26
e 9 28
e 9 29
e 9 32
e 9 33
e 9 34
e 9 35
e 9 36
e 9 37
e 9 39
e 9 43
e 9 46
e 9 48
e 9 49
e 9 52
e 9 53
e 9 62
e 9 72
e 9 78
e 9 83
e 9 100
e 10 17
e 10 18
e 10 19
e 10 21
e 10 22
e 10 23
e 10 26
e 10 27
e 10 29
e 10 32
e 10 36
e 10 38
e 10 62
e 10 75
e 10 86
e 11 17
e 11 18
e 11 19
e 11 20
e 11 21
e 11 22
e 11 23
e 11 24
e 11 25
e 11 26
e 11 29
e 11 32
e 11 33
e 11 36
e 11 37
e 11 39
e 11 41
e 11 49
e 11 51
e 11 56
e 11 61
e 11 62
e 11 66
e 11 69
e 11 71
e 11 76
e 11 77
e 11 81
e 11 86
e 11 87
e 12 17
e 12 18
e 12 19
e 12 20
e 12 22
e 12 24
e 12 25
e 12 27
e 12 30
e 12 31
e 12 32
e 12 33
e 12 40
e 12 41
e 12 43
e 12 45
e 12 47
e 12 53
e 12 71
e 12 73
e 12 75
e 12 77
e 12 79
e 12 87
e 12 88
e 12 91
e 12 92
e 12 99
e 13 17
e 13 18
e 13 19
e 13 20
e 13 21
e 13 23
e 13 24
e 13 26
e 13 27
e 13 30
e 13 31
e 13 40
e 13 43
e 13 44
e 13 45
e 13 46
e 13 48
e 13 50
e 13 51
e 13 55
e 13 77
e 13 79
e 13 80
e 14 17
e 14 18
e 14 19
e 14 21
e 14 22
e 14 23
e 14 24
e 14 26
e 14 28
e 14 29
e 14 42
e 14 47
e 14 52
e 14 57
e 14 65
e 14 67
e 14 74
e 14 83
e 15 17
e 15 18
e 15 19
e 15 20
e 15 21
e 15 33
e 15 35
e 15 49
e 15 69
e 15 95
e 16 17
e 16 18
e 16 19
e 16 20
e 16 21
e 16 22
e 16 24
e 16 25
e 16 28
e 16 30
e 16 34
e 16 37
e 16 39
e 16 40
e 16 42
e 16 43
e 16 46
e 16 54
e 16 60
e 16 61
e 16 64
e 16 71
e 16 80
e 16 86
e 16 93
e 16 98
e 17 18
e 17 19
e 17 20
e 17 21
e 17 22
e 17 23
e 17 24
e 17 25
e 17 26
e 17 27
e 17 29
e 17 31
e 17 32
e 17 33
e 17 34
e 17 35
e 17 36
e 17 37
e 17 38
e 17 40
e 17 41
e 17 43
e 17 45
e 17 46
e 17 47
e 17 49
e 17 55
e 17 56
e 17 58
e 17 59
e 17 63
e 17 65
e 17 66
e 17 68
e 17 72
e 17 73
e 17 76
e 17 78
e 17 80
e 17 82
e 17 88
e 17 89
e 17 91
e 17 92
e 18 19
e 18 20
e 18 21
e 18 22
e 18 23
e 18 24
e 18 25
e 18 26
e 18 27
e 18 28
e 18 29
e 18 30
e 18 32
e 18 33
e 18 34
e 18 35
e 18 36
e 18 37
e 18 38
e 18 39
e 18 40
e 18 41
e 18 42
e 18 49
e 18 55
e 18 57
e 18 59
e 18 61
e 18 63
e 18 64
e 18 66
e 18 68
e 18 71
e 18 72
e 18 75
e 18 87
e 18 89
e 18 93
e 18 94
e 18 96
e 18 97
e 18 99
e 18 100
e 19 20
e 19 21
e 19 22
e 19 23
e 19 24
e 19 25
e 19 27
e 19 28
e 19 29
e 19 30
e 19 31
e 19 34
e 19 35
e 19 36
e 19 37
e 19 38
e 19 39
e 19 40
e 19 41
e 19 44
e 19 46
e 19 52
e 19 54
e 19 56
e 19 58
e 19 60
e 19 62
e 19 63
e 19 64
e 19 67
e 19 69
e 19 73
e 19 78
e 19 87
e 19 89
e 19 96
e 20 21
e 20 22
e 20 23
e 20 24
e 20 25
e 20 26
e 20 27
e 20 30
e 20 32
e 20 33
e 20 35
e 20 37
e 20 44
e 20 47
e 20 48
e 20 53
e 20 54
e 20 56
e 20 57
e 20 58
e 20 64
e 20 65
e 20 69
e 20 71
e 20 77
e 20 79
e 20 84
e 21 23
e 21 24
e 21 25
e 21 26
e 21 27
e 21 28
e 21 29
e 21 33
e 21 34
e 21 35
e 21 36
e 21 37
e 21 39
e 21 40
e 21 41
e 21 42
e 21 45
e 21 49
e 21 53
e 21 56
e 21 58
e 21 59
e 21 61
e 21 62
e 21 64
e 21 65
e 21 70
e 21 74
e 21 75
e 21 83
e 21 88
e 21 90
e 21 95
e 21 99
e 22 23
e 22 24
e 22 25
e 22 26
e 22 27
e 22 28
e 22 29
e 22 30
e 22 31
e 22 32
e 22 34
e 22 35
e 22 36
e 22 38
e 22 39
e 22 40
e 22 42
e 22 43
e 22 45
e 22 46
e 22 47
e 22 48
e 22 49
e 22 50
e 22 54
e 22 57
e 22 58
e 22 61
e 22 63
e 22 65
e 22 66
e 22 70
e 22 73
e 22 77
e 22 78
e 22 81
e 22 86
e 22 87
e 22 89
e 22 98
e 23 25
e 23 26
e 23 27
e 23 28
e 23 29
e 23 30
e 23 31
e 23 32
e 23 33
e 23 39
e 23 42
e 23 44
e 23 48
e 23 51
e 23 54
e 23 56
e 23 60
e 23 64
e 23 67
e 23 69
e 23 70
e 23 80
e 23 84
e 23 96
e 24 25
e 24 26
e 24 27
e 24 28
e 24 35
e 24 36
e 24 40
e 24 43
e 24 51
e 24 52
e 24 55
e 24 57
e 24 58
e 24 59
e 24 60
e 24 66
e 24 71
e 24 75
e 24 76
e 24 77
e 24 80
e 24 88
e 24 91
e 24 92
e 24 95
e 24 100
e 25 26
e 25 27
e 25 28
e 25 29
e 25 30
e 25 33
e 25 34
e 25 35
e 25 36
e 25 39
e 25 41
e 25 42
e 25 45
e 25 46
e 25 48
e 25 49
e 25 50
e 25 55
e 25 59
e 25 68
e 25 74
e 25 79
e 25 81
e 25 82
e 25 83
e 25 92
e 25 95
e 25 96
e 25 98
e 26 27
e 26 28
e 26 31
e 26 32
e 26 34
e 26 36
e 26 38
e 26 44
e 26 45
e 26 51
e 26 52
e 26 65
e 26 72
e 26 74
e 26 79
e 26 84
e 26 85
e 26 92
e 27 29
e 27 30
e 27 31
e 27 32
e 27 35
e 27 36
e 27 37
e 27 38
e 27 39
e 27 40
e 27 43
e 27 44
e 27 46
e 27 47
e 27 48
e 27 49
e 27 50
e 27 52
e 27 53
e 27 54
e 27 59
e 27 61
e 27 62
e 27 64
e 27 66
e 27 70
e 27 72
e 27 73
e 27 74
e 27 76
e 27 79
e 27 82
e 27 84
e 27 85
e 27 86
e 27 88
e 27 91
e 27 93
e 27 96
e 27 100
e 28 31
e 28 32
e 28 33
e 28 34
e 28 35
e 28 37
e 28 40
e 28 41
e 28 42
e 28 44
e 28 45
e 28 46
e 28 49
e 28 51
e 28 52
e 28 59
e 28 60
e 28 64
e 28 79
e 28 80
e 28 82
e 28 84
e 28 85
e 28 86
e 28 88
e 28 94
e 28 96
e 28 100
e 29 30
e 29 31
e 29 32
e 29 33
e 29 34
e 29 37
e 29 38
e 29 39
e 29 41
e 29 44
e 29 46
e 29 47
e 29 48
e 29 50
e 29 51
e 29 52
e 29 55
e 29 61
e 29 66
e 29 71
e 29 72
e 29 75
e 29 77
e 29 78
e 29 79
e 29 86
e 29 92
e 29 94
e 29 99
e 30 31
e 30 36
e 30 37
e 30 38
e 30 39
e 30 40
e 30 42
e 30 43
e 30 47
e 30 50
e 30 54
e 30 56
e 30 60
e 30 70
e 30 72
e 30 76
e 30 85
e 31 32
e 31 35
e 31 43
e 31 48
e 31 52
e 31 55
e 31 58
e 31 59
e 31 65
e 31 68
e 31 80
e 31 88
e 31 91
e 31 93
e 31 97
e 32 34
e 32 35
e 32 37
e 32 41
e 32 42
e 32 44
e 32 45
e 32 46
e 32 48
e 32 50
e 32 51
e 32 53
e 32 54
e 32 55
e 32 56
e 32 57
e 32 63
e 32 64
e 32 65
e 32 68
e 32 69
e 32 72
e 32 73
e 32 75
e 32 76
e 32 80
e 32 84
e 32 88
e 32 90
e 32 91
e 32 92
e 32 95
e 33 34
e 33 38
e 33 39
e 33 44
e 33 45
e 33 48
e 33 54
e 33 58
e 33 62
e 33 68
e 33 74
e 33 81
e 33 83
e 33 90
e 33 91
e 33 94
e 34 47
e 34 54
e 34 58
e 34 61
e 34 65
e 34 66
e 34 67
e 34 68
e 34 71
e 34 77
e 34 80
e 34 81
e 34 93
e 34 94
e 34 98
e 35 38
e 35 41
e 35 42
e 35 44
e 35 47
e 35 50
e 35 51
e 35 55
e 35 57
e 35 58
e 35 63
e 35 66
e 35 68
e 35 74
e 35 77
e 35 79
e 35 86
e 35 88
e 35 89
e 35 93
e 35 96
e 36 37
e 36 38
e 36 43
e 36 44
e 36 45
e 36 51
e 36 52
e 36 64
e 36 65
e 36 69
e 36 74
e 36 83
e 36 86
e 36 89
e 36 92
e 36 94
e 36 96
e 36 98
e 37 38
e 37 40
e 37 41
e 37 44
e 37 50
e 37 51
e 37 64
e 37 72
e 37 73
e 37 97
e 38 47
e 38 49
e 38 57
e 38 61
e 38 62
e 38 67
e 38 76
e 38 87
e 38 93
e 38 96
e 39 41
e 39 50
e 39 52
e 39 53
e 39 62
e 39 63
e 39 65
e 39 67
e 39 70
e 39 72
e 39 80
e 39 81
e 39 82
e 39 97
e 39 100
e 40 42
e 40 43
e 40 46
e 40 49
e 40 52
e 40 53
e 40 57
e 40 58
e 40 59
e 40 60
e 40 61
e 40 67
e 40 70
e 40 87
e 40 97
e 40 98
e 41 44
e 41 46
e 41 48
e 41 53
e 41 54
e 41 55
e 41 58
e 41 60
e 41 63
e 41 70
e 41 71
e 41 73
e 41 81
e 41 84
e 41 86
e 42 43
e 42 44
e 42 48
e 42 51
e 42 53
e 42 54
e 42 55
e 42 56
e 42 57
e 42 61
e 42 62
e 42 66
e 42 68
e 42 69
e 42 72
e 42 76
e 42 77
e 42 79
e 42 81
e 42 84
e 42 88
e 42 90
e 42 91
e 42 93
e 42 94
e 42 98
e 42 100
e 43 48
e 43 49
e 43 50
e 43 55
e 43 60
e 43 62
e 43 68
e 43 71
e 43 75
e 43 78
e 43 82
e 43 89
e 43 95
e 43 96
e 44 69
e 44 72
e 44 75
e 44 78
e 44 82
e 45 53
e 45 58
e 45 66
e 45 68
e 45 70
e 45 71
e 45 74
e 45 79
e 45 82
e 45 85
e 45 99
e 46 47
e 46 49
e 46 52
e 46 56
e 46 67
e 46 68
e 46 71
e 46 77
e 46 79
e 46 93
e 46 95
e 46 96
e 46 99
e 47 50
e 47 56
e 47 58
e 47 62
e 47 63
e 47 66
e 47 69
e 47 81
e 47 82
e 47 86
e 47 87
e 47 88
e 47 90
e 47 97
e 47 98
e 47 100
e 48 53
e 48 59
e 48 60
e 48 65
e 48 67
e 48 68
e 48 69
e 48 70
e 48 72
e 48 78
e 48 82
e 48 89
e 48 91
e 48 94
e 48 99
e 49 51
e 49 54
e 49 55
e 49 56
e 49 57
e 49 67
e 49 79
e 49 83
e 49 96
e 49 97
e 49 99
e 50 56
e 50 58
e 50 59
e 50 61
e 50 64
e 50 73
e 50 78
e 50 82
e 50 94
e 50 97
e 50 99
e 51 53
e 51 57
e 51 70
e 52 57
e 52 61
e 52 62
e 52 73
e 52 74
e 52 84
e 52 88
e 52 91
e 52 92
e 52 94
e 53 54
e 53 59
e 53 60
e 53 63
e 53 66
e 53 75
e 53 77
e 53 78
e 53 83
e 53 84
e 53 89
e 53 91
e 53 94
e 53 97
e 54 55
e 54 59
e 54 67
e 54 80
e 54 83
e 54 86
e 54 92
e 55 56
e 55 57
e 55 61
e 55 63
e 55 66
e 55 80
e 55 95
e 55 99
e 55 100
e 56 60
e 56 62
e 56 63
e 56 64
e 56 66
e 56 75
e 56 76
e 56 85
e 56 86
e 56 90
e 56 91
e 56 94
e 57 60
e 57 68
e 57 73
e 57 80
e 57 88
e 57 93
e 58 59
e 58 65
e 58 73
e 58 75
e 58 78
e 58 81
e 58 85
e 58 90
e 58 94
e 58 95
e 58 98
e 58 100
e 59 60
e 59 63
e 59 67
e 59 68
e 59 70
e 59 71
e 59 76
e 59 77
e 59 83
e 59 85
e 59 88
e 59 90
e 59 93
e 60 64
e 60 69
e 60 70
e 60 72
e 60 73
e 60 76
e 60 78
e 60 92
e 60 96
e 60 97
e 60 98
e 61 71
e 61 74
e 61 76
e 61 84
e 61 87
e 61 90
e 62 64
e 62 69
e 62 73
e 62 74
e 62 90
e 62 95
e 63 83
e 63 89
e 64 78
e 64 81
e 64 92
e 64 100
e 65 69
e 65 73
e 65 79
e 65 85
e 65 93
e 65 99
e 66 70
e 66 80
e 66 81
e 66 86
e 66 91
e 66 95
e 66 98
e 67 70
e 67 81
e 67 90
e 67 91
e 67 95
e 67 99
e 68 76
e 68 86
e 68 96
e 69 74
e 69 75
e 69 76
e 69 83
e 69 90
e 69 99
e 69 100
e 70 77
e 70 85
e 70 97
e 71 76
e 71 77
e 71 79
e 71 83
e 71 84
e 71 86
e 71 87
e 71 88
e 71 89
e 71 91
e 71 93
e 71 96
e 71 98
e 71 100
e 72 78
e 72 87
e 72 89
e 73 85
e 73 89
e 73 90
e 73 92
e 74 75
e 74 80
e 74 82
e 74 85
e 74 87
e 74 92
e 75 84
e 75 85
e 75 90
e 75 95
e 76 81
e 76 83
e 77 80
e 77 85
e 77 87
e 77 93
e 78 84
e 79 84
e 79 93
e 80 82
e 80 83
e 80 100
e 81 87
e 81 96
e 81 100
e 82 98
e 83 87
e 83 99
e 86 89
e 86 94
e 86 99
e 87 88
e 88 97
e 89 90
e 89 97
e 91 98
e 93 95
e 93 97
e 94 98
